Route #1: 37 47 27 8 5 10 44
Route #2: 29 51 35 33 7 43 2
Route #3: 48 38 32 34 19 15 46 13 9 16
Route #4: 26 22 17 49 50 12 23 45 4
Route #5: 21 14 39 11 28 24 31 3
Route #6: 1 18 30 20 42 40
Route #7: 25 6 36 41
Cost 758